nohup: ignoring input
original problem has 3648 variables (192 bin, 0 int, 0 impl, 3456 cont) and 3312 constraints
Traceback (most recent call last):
  File "/home/mpc-linux-01/projects/ML4LB/primal_heur_localbranch.py", line 357, in heurexec
    MIP_model_copy, MIP_copy_vars, success = self.model.createCopyMipLns(fixed_vars, fixed_vals, 0, uselprows=False,
AttributeError: 'pyscipopt.scip.Model' object has no attribute 'createCopyMipLns'
Exception ignored in: 'pyscipopt.scip.PyHeurExec'
Traceback (most recent call last):
  File "/home/mpc-linux-01/projects/ML4LB/primal_heur_localbranch.py", line 357, in heurexec
    MIP_model_copy, MIP_copy_vars, success = self.model.createCopyMipLns(fixed_vars, fixed_vals, 0, uselprows=False,
AttributeError: 'pyscipopt.scip.Model' object has no attribute 'createCopyMipLns'
./result/saved_models/regression/trained_params_mean_setcover-independentset-combinatorialauction_asymmetric_firstsol_k_prime_epoch163.pth
./result/saved_models/rl/reinforce/setcovering/checkpoint_trained_reward3_simplepolicy_rl4lb_reinforce_trainset_setcovering-small_lr0.01_epochs7.pth
miplib_39binary-small
rootsol
./result/generated_instances/miplib_39binary/-small/rootsol/scip/heuristic_mode/lb-from-rootsol-t_total1200s-t_node2s-small_lb_k0_regression_rl_beforenode_freq1/seed100/
seed: 100
cpu
instance:  0
create a new SCIP model
The initial incumbent of miplib_39binary-0_transformed_a1c1s1 is successfully added to MIP model
miplib_39binary-0_transformed_a1c1s1
N of variables: 3648
N of binary vars: 192
N of constraints: 3312
Initial obj of MIP: 21029.389
* Model status: unknown
* Model status: nodelimit
* Solve stage: 9
* LP status: 1
* number of sol :  1
GNN prediction:  5.6930170103441924e-05
GNN k_0:  1.0
LB heuristic is starting..
LB heuristic starts at 0.032561 s
No. of LB call:  1
LB initial objective: 21029.389
The init sol of original MIP is feasible
Traceback (most recent call last):
  File "evaluation_scip_lb_regression_rl.py", line 120, in <module>
    scip_as_baseline.execute_heuristic_baseline(
  File "/home/mpc-linux-01/projects/ML4LB/execute_heuristics.py", line 418, in execute_heuristic_baseline
    self.setup_heuristic_per_instance(MIP_model=MIP_model,
  File "/home/mpc-linux-01/projects/ML4LB/execute_heuristics.py", line 337, in setup_heuristic_per_instance
    data = self.execute_heuristic_per_instance(MIP_model, incumbent, node_time_limit,
  File "/home/mpc-linux-01/projects/ML4LB/execute_heuristics.py", line 4422, in execute_heuristic_per_instance
    MIP_model_copy2.optimize()
  File "src/pyscipopt/scip.pyx", line 3123, in pyscipopt.scip.Model.optimize
  File "src/pyscipopt/scip.pyx", line 229, in pyscipopt.scip.PY_SCIP_CALL
Exception: SCIP: unspecified error!
